************************************************************************
file with basedata            : mm63_.bas
initial value random generator: 25426
************************************************************************
projects                      :  1
jobs (incl. supersource/sink ):  12
horizon                       :  76
RESOURCES
  - renewable                 :  2   R
  - nonrenewable              :  2   N
  - doubly constrained        :  0   D
************************************************************************
PROJECT INFORMATION:
pronr.  #jobs rel.date duedate tardcost  MPM-Time
    1     10      0       14        0       14
************************************************************************
PRECEDENCE RELATIONS:
jobnr.    #modes  #successors   successors
   0        1          3           1   2   3
   1        3          1           5
   2        3          1           8
   3        3          1           4
   4        3          2           6   8
   5        3          3           6   7   8
   6        3          2           9  10
   7        3          2           9  10
   8        3          1          11
   9        3          1          11
  10        3          1          11
  11        1          0        
************************************************************************
REQUESTS/DURATIONS:
jobnr. mode duration  R 1  R 2  R 3  R 4  E(W 1)  E(W 2)  E(W 3)
------------------------------------------------------------------------
  0      1     0       0    0    0    0     0       0       0
  1      1     6      10    6    3    7    96      18      42
  2      1     1       5    3    7    5     8       7       5
  3      1     2       8    8   10    6    32      20      12
  4      1     6       8    8    6    9    96      36      54
  5      1     3       6    6    8    5    36      24      15
  6      1     2       3    2    7    5    10      14      10
  7      1     2       8    5   10   10    26      20      20
  8      1     5       3    3   10    3    30      50      15
  9      1     2       8    6    6    6    28      12      12
 10      1     2       8    4   10    9    24      20      18
 11      1     0       0    0    0    0     0       0       0
************************************************************************
RESOURCEAVAILABILITIES:
  R 1  R 2  R 3
   40   68   59
************************************************************************
RESOURCE LIMITS:
jobnr.  l(R 1)  u(R 1)  l(R 2)  u(R 2)  l(R 3)  u(R 3)
------------------------------------------------------------------------
  0        0       0       0       0       0       0
  1        8      16       2       3       4       7
  2        5       8       4       7       3       5
  3        8      16       5      10       3       6
  4        8      16       3       6       5       9
  5        6      12       4       8       3       5
  6        3       5       4       7       3       5
  7        7      13       5      10       5      10
  8        4       6       5      10       2       3
  9        7      14       3       6       3       6
 10        6      12       5      10       5       9
 11        0       0       0       0       0       0
************************************************************************
SCENARIOS:
------------------------------------------------------------------------
RESOURCE k = 1
s = 1: (0, 75, 8, 29, 102, 70, 12, 23, 33, 32, 39, 0)
s = 2: (0, 129, 8, 24, 145, 45, 16, 34, 42, 24, 27, 0)
s = 3: (0, 62, 10, 23, 146, 22, 10, 25, 43, 30, 28, 0)
s = 4: (0, 94, 8, 38, 181, 41, 13, 35, 39, 23, 26, 0)
s = 5: (0, 91, 6, 22, 91, 32, 6, 30, 31, 39, 23, 0)
s = 6: (0, 127, 7, 28, 83, 25, 8, 31, 49, 46, 23, 0)
s = 7: (0, 80, 5, 41, 86, 29, 14, 35, 40, 27, 17, 0)
s = 8: (0, 100, 9, 19, 108, 27, 7, 32, 32, 50, 28, 0)
s = 9: (0, 74, 11, 22, 111, 60, 14, 20, 24, 37, 27, 0)
s = 10: (0, 61, 8, 20, 84, 50, 12, 47, 44, 36, 23, 0)
s = 11: (0, 125, 10, 41, 68, 42, 9, 16, 30, 33, 17, 0)
s = 12: (0, 144, 11, 39, 95, 37, 9, 21, 35, 23, 15, 0)
s = 13: (0, 56, 10, 50, 119, 25, 11, 18, 34, 32, 18, 0)
s = 14: (0, 95, 7, 29, 140, 30, 16, 20, 21, 29, 28, 0)
s = 15: (0, 76, 9, 40, 98, 56, 6, 39, 44, 33, 24, 0)
s = 16: (0, 134, 7, 21, 112, 22, 11, 19, 31, 34, 19, 0)
s = 17: (0, 184, 7, 44, 171, 30, 17, 42, 39, 37, 26, 0)
s = 18: (0, 117, 9, 32, 84, 20, 11, 24, 36, 34, 19, 0)
s = 19: (0, 109, 8, 29, 143, 22, 15, 19, 26, 20, 16, 0)
s = 20: (0, 57, 7, 41, 116, 30, 12, 21, 27, 43, 24, 0)
s = 21: (0, 111, 11, 38, 123, 38, 14, 38, 28, 23, 26, 0)
s = 22: (0, 112, 12, 33, 97, 43, 13, 26, 46, 51, 39, 0)
s = 23: (0, 110, 6, 21, 86, 25, 6, 34, 24, 19, 34, 0)
s = 24: (0, 49, 8, 23, 72, 51, 7, 19, 23, 18, 28, 0)
s = 25: (0, 107, 6, 57, 105, 39, 11, 31, 35, 27, 40, 0)
s = 26: (0, 88, 11, 49, 137, 29, 8, 24, 49, 17, 27, 0)
s = 27: (0, 93, 11, 40, 75, 36, 13, 21, 19, 36, 20, 0)
s = 28: (0, 89, 10, 24, 85, 55, 9, 24, 28, 22, 18, 0)
s = 29: (0, 106, 8, 32, 113, 40, 9, 19, 40, 28, 14, 0)
s = 30: (0, 134, 11, 44, 115, 54, 11, 21, 31, 34, 35, 0)
s = 31: (0, 83, 8, 39, 62, 31, 17, 26, 38, 20, 17, 0)
s = 32: (0, 105, 7, 24, 57, 23, 11, 29, 39, 40, 22, 0)
s = 33: (0, 105, 8, 20, 105, 31, 7, 19, 31, 35, 15, 0)
s = 34: (0, 55, 7, 44, 70, 38, 10, 39, 39, 31, 33, 0)
s = 35: (0, 98, 7, 41, 73, 47, 8, 25, 35, 21, 27, 0)
s = 36: (0, 121, 6, 25, 120, 35, 9, 19, 36, 24, 22, 0)
s = 37: (0, 116, 9, 37, 140, 29, 9, 31, 19, 21, 14, 0)
s = 38: (0, 123, 10, 26, 56, 53, 6, 23, 36, 33, 28, 0)
s = 39: (0, 71, 9, 25, 75, 27, 11, 34, 22, 38, 30, 0)
s = 40: (0, 70, 6, 48, 67, 29, 11, 26, 28, 33, 20, 0)
s = 41: (0, 138, 7, 41, 60, 38, 17, 46, 25, 41, 19, 0)
s = 42: (0, 88, 13, 28, 83, 31, 13, 22, 23, 17, 21, 0)
s = 43: (0, 113, 9, 35, 84, 55, 9, 14, 30, 35, 38, 0)
s = 44: (0, 114, 8, 43, 101, 33, 9, 17, 48, 21, 21, 0)
s = 45: (0, 115, 6, 28, 155, 32, 7, 42, 19, 27, 25, 0)
s = 46: (0, 118, 7, 29, 71, 58, 7, 16, 28, 25, 33, 0)
s = 47: (0, 90, 10, 17, 168, 44, 11, 27, 35, 46, 28, 0)
s = 48: (0, 56, 9, 28, 82, 26, 15, 24, 32, 23, 24, 0)
s = 49: (0, 84, 10, 21, 83, 46, 9, 23, 20, 38, 32, 0)
s = 50: (0, 55, 8, 37, 59, 32, 12, 28, 46, 32, 21, 0)
s = 51: (0, 91, 5, 33, 86, 27, 8, 23, 43, 34, 17, 0)
s = 52: (0, 61, 9, 28, 104, 35, 10, 16, 28, 23, 28, 0)
s = 53: (0, 73, 10, 45, 106, 36, 12, 27, 39, 36, 28, 0)
s = 54: (0, 110, 7, 29, 104, 47, 13, 25, 31, 28, 20, 0)
s = 55: (0, 102, 8, 26, 144, 35, 16, 28, 22, 32, 23, 0)
s = 56: (0, 66, 8, 28, 73, 38, 17, 25, 19, 39, 19, 0)
s = 57: (0, 99, 8, 44, 112, 28, 9, 20, 34, 22, 32, 0)
s = 58: (0, 143, 9, 22, 97, 45, 15, 18, 22, 31, 17, 0)
s = 59: (0, 126, 6, 44, 143, 31, 14, 31, 26, 18, 23, 0)
s = 60: (0, 107, 7, 44, 70, 28, 10, 35, 25, 20, 31, 0)
s = 61: (0, 122, 8, 36, 84, 31, 8, 33, 20, 21, 27, 0)
s = 62: (0, 71, 7, 33, 61, 29, 9, 33, 28, 17, 24, 0)
s = 63: (0, 87, 11, 45, 154, 28, 17, 21, 34, 17, 28, 0)
s = 64: (0, 105, 10, 35, 76, 48, 8, 24, 33, 28, 38, 0)
s = 65: (0, 92, 7, 26, 136, 23, 14, 20, 41, 31, 18, 0)
s = 66: (0, 111, 10, 18, 56, 56, 16, 23, 40, 32, 20, 0)
s = 67: (0, 116, 5, 28, 63, 41, 9, 26, 35, 26, 27, 0)
s = 68: (0, 68, 9, 23, 79, 33, 9, 36, 24, 33, 22, 0)
s = 69: (0, 73, 7, 24, 85, 36, 8, 31, 39, 31, 18, 0)
s = 70: (0, 105, 8, 47, 108, 37, 12, 28, 32, 27, 23, 0)
s = 71: (0, 62, 5, 35, 102, 28, 17, 22, 25, 32, 20, 0)
s = 72: (0, 91, 7, 29, 89, 48, 9, 30, 51, 26, 16, 0)
s = 73: (0, 118, 10, 31, 70, 39, 11, 18, 37, 23, 20, 0)
s = 74: (0, 86, 6, 38, 100, 55, 16, 18, 31, 33, 34, 0)
s = 75: (0, 111, 7, 34, 91, 39, 8, 33, 33, 30, 20, 0)
s = 76: (0, 151, 8, 33, 65, 44, 8, 17, 25, 23, 15, 0)
s = 77: (0, 105, 5, 31, 89, 33, 10, 19, 33, 25, 31, 0)
s = 78: (0, 133, 12, 27, 104, 47, 8, 22, 38, 20, 36, 0)
s = 79: (0, 93, 7, 35, 109, 25, 9, 31, 18, 20, 24, 0)
s = 80: (0, 73, 8, 25, 167, 44, 9, 26, 35, 21, 26, 0)
s = 81: (0, 91, 7, 52, 84, 44, 7, 20, 35, 22, 28, 0)
s = 82: (0, 100, 8, 33, 88, 46, 8, 27, 34, 22, 15, 0)
s = 83: (0, 133, 9, 50, 98, 22, 7, 37, 24, 29, 15, 0)
s = 84: (0, 89, 8, 22, 69, 31, 13, 31, 25, 28, 15, 0)
s = 85: (0, 121, 6, 29, 145, 33, 9, 25, 19, 39, 17, 0)
s = 86: (0, 82, 8, 41, 65, 39, 12, 16, 32, 30, 23, 0)
s = 87: (0, 85, 6, 27, 91, 36, 8, 40, 29, 21, 20, 0)
s = 88: (0, 101, 8, 29, 81, 35, 11, 31, 18, 28, 19, 0)
s = 89: (0, 141, 5, 27, 57, 55, 12, 40, 43, 36, 24, 0)
s = 90: (0, 103, 5, 22, 69, 39, 9, 37, 24, 23, 20, 0)
s = 91: (0, 108, 7, 37, 106, 35, 7, 32, 33, 17, 29, 0)
s = 92: (0, 90, 11, 29, 64, 59, 11, 32, 57, 27, 19, 0)
s = 93: (0, 93, 8, 40, 76, 39, 8, 24, 29, 34, 14, 0)
s = 94: (0, 74, 10, 46, 81, 38, 11, 31, 33, 20, 25, 0)
s = 95: (0, 122, 9, 35, 132, 34, 7, 30, 33, 30, 14, 0)
s = 96: (0, 103, 6, 28, 147, 24, 13, 23, 19, 27, 15, 0)
s = 97: (0, 100, 9, 26, 64, 45, 16, 40, 33, 29, 20, 0)
s = 98: (0, 65, 7, 23, 112, 36, 11, 15, 25, 25, 17, 0)
s = 99: (0, 57, 7, 28, 144, 44, 9, 30, 22, 34, 28, 0)
s = 100: (0, 161, 11, 41, 59, 24, 12, 42, 24, 43, 35, 0)
s = 101: (0, 66, 8, 36, 65, 36, 11, 20, 21, 38, 13, 0)
s = 102: (0, 123, 11, 28, 96, 30, 11, 32, 31, 29, 15, 0)
s = 103: (0, 100, 10, 44, 81, 35, 8, 19, 36, 29, 22, 0)
s = 104: (0, 120, 8, 38, 153, 38, 7, 17, 39, 18, 27, 0)
s = 105: (0, 70, 11, 26, 113, 38, 7, 36, 24, 21, 19, 0)
s = 106: (0, 124, 8, 23, 60, 44, 14, 30, 33, 36, 29, 0)
s = 107: (0, 149, 13, 31, 57, 37, 11, 15, 25, 35, 28, 0)
s = 108: (0, 137, 11, 29, 97, 33, 14, 26, 23, 21, 19, 0)
s = 109: (0, 73, 9, 41, 78, 24, 10, 17, 29, 30, 16, 0)
s = 110: (0, 127, 9, 43, 153, 39, 17, 23, 26, 27, 28, 0)
s = 111: (0, 106, 9, 36, 104, 25, 12, 38, 31, 31, 19, 0)
s = 112: (0, 110, 8, 27, 54, 26, 9, 24, 34, 31, 29, 0)
s = 113: (0, 98, 8, 23, 92, 31, 13, 30, 31, 28, 23, 0)
s = 114: (0, 56, 6, 53, 91, 48, 10, 20, 42, 23, 21, 0)
s = 115: (0, 109, 7, 37, 138, 50, 8, 31, 37, 37, 19, 0)
s = 116: (0, 135, 6, 47, 96, 40, 10, 23, 23, 39, 25, 0)
s = 117: (0, 67, 8, 19, 87, 26, 8, 23, 21, 34, 27, 0)
s = 118: (0, 102, 11, 19, 106, 48, 8, 17, 33, 21, 17, 0)
s = 119: (0, 67, 11, 30, 99, 51, 8, 29, 60, 22, 36, 0)
s = 120: (0, 63, 5, 39, 148, 37, 9, 18, 22, 26, 35, 0)
s = 121: (0, 88, 11, 35, 87, 30, 7, 25, 21, 33, 19, 0)
s = 122: (0, 123, 11, 27, 61, 37, 7, 19, 34, 35, 17, 0)
s = 123: (0, 58, 8, 31, 80, 32, 8, 30, 42, 36, 17, 0)
s = 124: (0, 98, 14, 38, 75, 27, 6, 16, 43, 27, 18, 0)
s = 125: (0, 59, 8, 22, 88, 49, 15, 21, 34, 33, 14, 0)
s = 126: (0, 70, 11, 35, 112, 38, 11, 28, 33, 19, 33, 0)
s = 127: (0, 109, 9, 35, 134, 34, 12, 24, 31, 23, 33, 0)
s = 128: (0, 69, 10, 30, 76, 47, 14, 18, 25, 41, 24, 0)
s = 129: (0, 95, 10, 23, 77, 44, 10, 24, 18, 19, 24, 0)
s = 130: (0, 108, 10, 42, 76, 50, 6, 28, 24, 25, 26, 0)
s = 131: (0, 68, 6, 33, 76, 39, 6, 28, 45, 25, 23, 0)
s = 132: (0, 83, 9, 25, 96, 43, 8, 17, 19, 44, 19, 0)
s = 133: (0, 129, 10, 22, 62, 31, 11, 26, 49, 30, 21, 0)
s = 134: (0, 113, 9, 40, 104, 25, 11, 19, 18, 23, 21, 0)
s = 135: (0, 99, 10, 20, 90, 27, 10, 34, 42, 37, 27, 0)
s = 136: (0, 125, 9, 38, 89, 22, 12, 21, 36, 33, 35, 0)
s = 137: (0, 84, 12, 24, 56, 32, 8, 32, 19, 33, 34, 0)
s = 138: (0, 146, 11, 43, 116, 42, 12, 29, 23, 28, 23, 0)
s = 139: (0, 102, 11, 28, 50, 34, 7, 20, 30, 44, 35, 0)
s = 140: (0, 57, 8, 34, 90, 22, 8, 19, 32, 27, 26, 0)
s = 141: (0, 93, 14, 47, 71, 41, 6, 26, 32, 25, 14, 0)
s = 142: (0, 68, 9, 30, 140, 30, 7, 25, 31, 22, 15, 0)
s = 143: (0, 89, 9, 36, 65, 29, 7, 25, 49, 22, 25, 0)
s = 144: (0, 82, 7, 24, 102, 38, 9, 25, 43, 29, 17, 0)
s = 145: (0, 73, 5, 24, 74, 52, 12, 16, 28, 24, 22, 0)
s = 146: (0, 127, 8, 59, 57, 29, 12, 23, 30, 35, 30, 0)
s = 147: (0, 120, 10, 32, 88, 46, 9, 24, 29, 25, 24, 0)
s = 148: (0, 71, 11, 17, 98, 27, 14, 19, 32, 30, 31, 0)
s = 149: (0, 72, 9, 20, 99, 35, 9, 20, 50, 15, 25, 0)
s = 150: (0, 107, 7, 21, 98, 35, 12, 27, 20, 33, 23, 0)
s = 151: (0, 82, 9, 54, 86, 60, 7, 35, 27, 24, 22, 0)
s = 152: (0, 97, 9, 30, 125, 52, 11, 36, 22, 21, 19, 0)
s = 153: (0, 77, 6, 27, 153, 26, 11, 23, 27, 20, 29, 0)
s = 154: (0, 66, 11, 34, 116, 49, 6, 40, 34, 30, 37, 0)
s = 155: (0, 62, 12, 21, 71, 36, 9, 33, 40, 28, 21, 0)
s = 156: (0, 97, 7, 38, 86, 26, 16, 36, 25, 21, 33, 0)
s = 157: (0, 75, 6, 28, 119, 43, 7, 26, 40, 26, 19, 0)
s = 158: (0, 91, 7, 44, 95, 42, 12, 28, 30, 34, 18, 0)
s = 159: (0, 100, 13, 30, 67, 28, 8, 36, 21, 33, 21, 0)
s = 160: (0, 125, 11, 32, 127, 39, 11, 53, 43, 25, 20, 0)
s = 161: (0, 95, 6, 25, 55, 46, 12, 40, 37, 17, 15, 0)
s = 162: (0, 75, 10, 39, 64, 28, 8, 41, 18, 17, 17, 0)
s = 163: (0, 133, 12, 22, 79, 34, 7, 27, 34, 26, 25, 0)
s = 164: (0, 102, 13, 28, 151, 46, 8, 28, 23, 18, 27, 0)
s = 165: (0, 72, 6, 34, 97, 41, 9, 33, 31, 32, 25, 0)
s = 166: (0, 86, 7, 41, 79, 33, 9, 44, 30, 28, 29, 0)
s = 167: (0, 71, 7, 37, 121, 43, 9, 46, 42, 18, 28, 0)
s = 168: (0, 130, 7, 24, 124, 22, 6, 41, 30, 31, 17, 0)
s = 169: (0, 114, 7, 52, 173, 35, 7, 31, 23, 20, 21, 0)
s = 170: (0, 66, 6, 30, 93, 55, 13, 20, 20, 19, 15, 0)
s = 171: (0, 94, 10, 36, 67, 39, 10, 17, 20, 29, 20, 0)
s = 172: (0, 113, 7, 25, 168, 44, 9, 37, 40, 32, 16, 0)
s = 173: (0, 63, 11, 44, 97, 40, 13, 25, 23, 30, 29, 0)
s = 174: (0, 84, 9, 59, 75, 43, 10, 34, 32, 25, 42, 0)
s = 175: (0, 99, 8, 36, 89, 27, 8, 20, 27, 18, 24, 0)
s = 176: (0, 89, 13, 19, 135, 48, 6, 14, 34, 36, 25, 0)
s = 177: (0, 103, 6, 51, 91, 37, 9, 22, 40, 20, 21, 0)
s = 178: (0, 104, 10, 48, 121, 38, 8, 27, 19, 34, 28, 0)
s = 179: (0, 111, 6, 41, 126, 24, 11, 40, 29, 26, 24, 0)
s = 180: (0, 63, 13, 28, 123, 42, 7, 16, 41, 40, 24, 0)
s = 181: (0, 84, 7, 40, 88, 47, 9, 14, 42, 25, 32, 0)
s = 182: (0, 114, 8, 25, 173, 50, 10, 51, 30, 46, 30, 0)
s = 183: (0, 104, 9, 38, 91, 25, 7, 34, 35, 27, 37, 0)
s = 184: (0, 89, 10, 19, 100, 39, 6, 33, 32, 31, 34, 0)
s = 185: (0, 98, 11, 31, 118, 39, 12, 19, 26, 25, 31, 0)
s = 186: (0, 165, 10, 34, 83, 37, 11, 26, 58, 22, 28, 0)
s = 187: (0, 54, 6, 56, 134, 31, 7, 28, 22, 30, 19, 0)
s = 188: (0, 83, 8, 44, 56, 30, 8, 36, 35, 31, 26, 0)
s = 189: (0, 59, 11, 17, 97, 32, 7, 21, 23, 45, 41, 0)
s = 190: (0, 73, 12, 25, 65, 24, 9, 21, 32, 29, 20, 0)
s = 191: (0, 120, 10, 28, 103, 48, 12, 19, 20, 24, 23, 0)
s = 192: (0, 88, 7, 35, 99, 35, 7, 26, 32, 16, 21, 0)
s = 193: (0, 109, 7, 30, 81, 41, 9, 18, 37, 26, 31, 0)
s = 194: (0, 86, 7, 24, 95, 25, 12, 19, 29, 21, 24, 0)
s = 195: (0, 60, 13, 25, 122, 24, 9, 20, 32, 27, 14, 0)
s = 196: (0, 83, 5, 27, 149, 56, 10, 30, 37, 47, 16, 0)
s = 197: (0, 138, 5, 32, 83, 27, 8, 27, 39, 38, 17, 0)
s = 198: (0, 72, 8, 48, 73, 38, 8, 25, 22, 23, 30, 0)
s = 199: (0, 99, 12, 27, 82, 34, 8, 17, 18, 37, 38, 0)
s = 200: (0, 61, 8, 23, 115, 31, 10, 24, 28, 37, 21, 0)
------------------------------------------------------------------------
RESOURCE k = 2
s = 1: (0, 15, 7, 18, 39, 47, 16, 18, 54, 14, 32, 0)
s = 2: (0, 25, 7, 15, 55, 30, 22, 26, 69, 11, 23, 0)
s = 3: (0, 12, 9, 14, 55, 15, 14, 19, 72, 13, 23, 0)
s = 4: (0, 18, 7, 24, 68, 28, 18, 27, 65, 10, 22, 0)
s = 5: (0, 18, 5, 14, 34, 21, 8, 23, 51, 17, 19, 0)
s = 6: (0, 24, 7, 17, 32, 17, 10, 24, 81, 20, 19, 0)
s = 7: (0, 15, 4, 26, 33, 20, 20, 27, 66, 12, 14, 0)
s = 8: (0, 19, 8, 12, 41, 18, 9, 24, 54, 22, 23, 0)
s = 9: (0, 14, 10, 14, 42, 40, 19, 16, 39, 16, 22, 0)
s = 10: (0, 12, 7, 13, 32, 33, 17, 36, 73, 16, 19, 0)
s = 11: (0, 24, 9, 26, 26, 28, 12, 13, 49, 15, 15, 0)
s = 12: (0, 27, 10, 24, 36, 25, 12, 16, 57, 10, 12, 0)
s = 13: (0, 11, 8, 32, 45, 17, 15, 14, 57, 14, 15, 0)
s = 14: (0, 18, 6, 18, 53, 20, 23, 16, 35, 13, 23, 0)
s = 15: (0, 15, 8, 25, 37, 38, 8, 30, 74, 14, 20, 0)
s = 16: (0, 26, 6, 13, 42, 15, 16, 15, 52, 15, 16, 0)
s = 17: (0, 35, 6, 28, 64, 20, 24, 32, 65, 16, 22, 0)
s = 18: (0, 22, 8, 20, 32, 13, 15, 19, 59, 15, 16, 0)
s = 19: (0, 21, 7, 18, 54, 15, 20, 14, 43, 9, 13, 0)
s = 20: (0, 11, 6, 26, 44, 20, 16, 16, 44, 19, 20, 0)
s = 21: (0, 21, 9, 24, 46, 25, 20, 29, 46, 10, 22, 0)
s = 22: (0, 21, 10, 21, 37, 29, 18, 20, 76, 22, 32, 0)
s = 23: (0, 21, 5, 13, 32, 17, 9, 26, 40, 8, 29, 0)
s = 24: (0, 10, 7, 14, 27, 34, 9, 14, 38, 8, 23, 0)
s = 25: (0, 20, 5, 36, 40, 26, 15, 24, 59, 12, 33, 0)
s = 26: (0, 17, 10, 31, 52, 20, 11, 19, 81, 7, 23, 0)
s = 27: (0, 18, 9, 25, 28, 24, 17, 16, 32, 16, 17, 0)
s = 28: (0, 17, 9, 15, 32, 37, 12, 19, 46, 10, 15, 0)
s = 29: (0, 20, 7, 20, 43, 27, 12, 14, 66, 12, 12, 0)
s = 30: (0, 25, 9, 28, 44, 36, 15, 16, 52, 15, 29, 0)
s = 31: (0, 16, 7, 25, 23, 21, 23, 20, 62, 9, 14, 0)
s = 32: (0, 20, 7, 15, 22, 15, 15, 23, 65, 18, 19, 0)
s = 33: (0, 20, 7, 13, 40, 21, 10, 15, 51, 15, 13, 0)
s = 34: (0, 11, 6, 27, 26, 25, 14, 30, 65, 14, 28, 0)
s = 35: (0, 19, 6, 26, 28, 31, 11, 19, 57, 9, 22, 0)
s = 36: (0, 23, 5, 16, 45, 24, 12, 15, 59, 11, 19, 0)
s = 37: (0, 22, 8, 23, 53, 19, 12, 24, 32, 9, 12, 0)
s = 38: (0, 24, 9, 17, 21, 35, 8, 18, 59, 15, 23, 0)
s = 39: (0, 14, 8, 16, 29, 18, 15, 26, 36, 16, 25, 0)
s = 40: (0, 14, 5, 30, 26, 19, 15, 20, 46, 14, 16, 0)
s = 41: (0, 26, 7, 26, 23, 26, 24, 35, 41, 18, 16, 0)
s = 42: (0, 17, 12, 18, 32, 21, 18, 17, 37, 8, 18, 0)
s = 43: (0, 22, 8, 22, 32, 37, 12, 11, 50, 15, 32, 0)
s = 44: (0, 22, 7, 27, 38, 22, 12, 13, 80, 9, 17, 0)
s = 45: (0, 22, 5, 17, 59, 22, 10, 33, 31, 12, 21, 0)
s = 46: (0, 23, 6, 18, 27, 39, 9, 12, 47, 11, 28, 0)
s = 47: (0, 17, 9, 11, 63, 29, 15, 21, 57, 20, 24, 0)
s = 48: (0, 11, 8, 17, 31, 18, 21, 18, 52, 10, 20, 0)
s = 49: (0, 16, 9, 13, 32, 31, 13, 18, 33, 17, 27, 0)
s = 50: (0, 11, 7, 23, 22, 21, 17, 22, 76, 14, 17, 0)
s = 51: (0, 17, 4, 21, 33, 18, 11, 18, 72, 15, 15, 0)
s = 52: (0, 12, 8, 18, 39, 23, 14, 12, 46, 10, 23, 0)
s = 53: (0, 14, 8, 28, 40, 24, 17, 21, 65, 16, 24, 0)
s = 54: (0, 21, 6, 18, 39, 32, 18, 19, 51, 12, 16, 0)
s = 55: (0, 20, 7, 17, 54, 24, 22, 21, 37, 14, 19, 0)
s = 56: (0, 13, 7, 18, 28, 26, 24, 19, 32, 17, 16, 0)
s = 57: (0, 19, 7, 28, 42, 19, 13, 16, 57, 10, 27, 0)
s = 58: (0, 27, 8, 14, 37, 30, 21, 14, 36, 13, 14, 0)
s = 59: (0, 24, 5, 28, 54, 21, 19, 24, 43, 8, 19, 0)
s = 60: (0, 20, 7, 27, 27, 19, 13, 27, 42, 9, 26, 0)
s = 61: (0, 23, 7, 22, 32, 21, 11, 26, 32, 9, 23, 0)
s = 62: (0, 14, 6, 21, 23, 20, 12, 26, 47, 8, 20, 0)
s = 63: (0, 17, 10, 28, 58, 19, 23, 17, 56, 8, 24, 0)
s = 64: (0, 20, 9, 22, 29, 32, 11, 19, 55, 12, 32, 0)
s = 65: (0, 18, 6, 16, 51, 15, 20, 16, 69, 13, 15, 0)
s = 66: (0, 21, 9, 12, 21, 38, 22, 18, 67, 14, 17, 0)
s = 67: (0, 22, 4, 18, 24, 27, 13, 20, 58, 12, 23, 0)
s = 68: (0, 13, 8, 15, 30, 22, 12, 28, 40, 14, 19, 0)
s = 69: (0, 14, 6, 15, 32, 24, 11, 24, 65, 14, 15, 0)
s = 70: (0, 20, 7, 29, 41, 25, 16, 21, 53, 12, 19, 0)
s = 71: (0, 12, 4, 22, 38, 19, 24, 17, 41, 14, 17, 0)
s = 72: (0, 17, 6, 18, 34, 32, 13, 23, 85, 11, 14, 0)
s = 73: (0, 22, 9, 20, 27, 26, 15, 14, 62, 10, 17, 0)
s = 74: (0, 17, 6, 24, 38, 37, 22, 14, 51, 14, 28, 0)
s = 75: (0, 21, 6, 21, 35, 26, 12, 26, 54, 13, 16, 0)
s = 76: (0, 29, 7, 21, 25, 29, 11, 13, 41, 10, 12, 0)
s = 77: (0, 20, 4, 20, 34, 22, 14, 14, 54, 11, 26, 0)
s = 78: (0, 25, 10, 17, 39, 31, 11, 17, 64, 9, 30, 0)
s = 79: (0, 18, 6, 22, 41, 17, 13, 24, 30, 9, 20, 0)
s = 80: (0, 14, 7, 16, 63, 30, 13, 20, 58, 9, 22, 0)
s = 81: (0, 17, 6, 32, 32, 29, 9, 16, 57, 10, 23, 0)
s = 82: (0, 19, 7, 21, 33, 31, 11, 21, 56, 10, 13, 0)
s = 83: (0, 25, 8, 31, 37, 15, 10, 29, 39, 13, 13, 0)
s = 84: (0, 17, 7, 14, 26, 21, 18, 24, 42, 12, 13, 0)
s = 85: (0, 23, 5, 18, 55, 22, 13, 20, 32, 17, 14, 0)
s = 86: (0, 16, 7, 26, 25, 26, 16, 13, 54, 13, 19, 0)
s = 87: (0, 16, 5, 17, 34, 24, 11, 31, 49, 9, 17, 0)
s = 88: (0, 19, 7, 18, 31, 23, 16, 24, 30, 12, 16, 0)
s = 89: (0, 27, 5, 17, 22, 37, 17, 31, 71, 16, 20, 0)
s = 90: (0, 20, 5, 14, 26, 26, 13, 28, 40, 10, 17, 0)
s = 91: (0, 21, 6, 24, 40, 23, 10, 25, 55, 8, 25, 0)
s = 92: (0, 17, 10, 18, 24, 40, 15, 24, 95, 12, 16, 0)
s = 93: (0, 18, 7, 25, 29, 26, 11, 19, 48, 15, 12, 0)
s = 94: (0, 14, 9, 29, 31, 26, 15, 24, 54, 9, 21, 0)
s = 95: (0, 23, 8, 22, 50, 23, 9, 23, 55, 13, 12, 0)
s = 96: (0, 20, 5, 18, 55, 16, 18, 18, 31, 12, 13, 0)
s = 97: (0, 19, 8, 17, 24, 30, 23, 31, 55, 13, 17, 0)
s = 98: (0, 13, 7, 15, 42, 24, 15, 12, 41, 11, 14, 0)
s = 99: (0, 11, 7, 18, 54, 29, 12, 23, 37, 15, 24, 0)
s = 100: (0, 31, 9, 26, 22, 16, 17, 32, 40, 19, 30, 0)
s = 101: (0, 13, 7, 23, 25, 24, 15, 15, 35, 16, 11, 0)
s = 102: (0, 23, 10, 18, 36, 20, 16, 25, 51, 13, 12, 0)
s = 103: (0, 19, 9, 28, 31, 23, 10, 15, 59, 13, 18, 0)
s = 104: (0, 23, 7, 24, 58, 25, 10, 13, 65, 8, 23, 0)
s = 105: (0, 14, 10, 16, 43, 25, 10, 28, 39, 9, 16, 0)
s = 106: (0, 24, 7, 14, 23, 29, 20, 24, 55, 16, 24, 0)
s = 107: (0, 28, 11, 19, 22, 25, 16, 12, 41, 15, 23, 0)
s = 108: (0, 26, 9, 18, 37, 22, 19, 20, 39, 9, 16, 0)
s = 109: (0, 14, 8, 26, 30, 16, 13, 13, 48, 13, 14, 0)
s = 110: (0, 24, 8, 27, 58, 26, 23, 18, 43, 12, 23, 0)
s = 111: (0, 20, 8, 23, 39, 17, 16, 30, 51, 14, 16, 0)
s = 112: (0, 21, 7, 17, 20, 17, 12, 18, 56, 13, 25, 0)
s = 113: (0, 19, 7, 15, 35, 21, 18, 23, 51, 12, 19, 0)
s = 114: (0, 11, 5, 33, 34, 32, 14, 15, 70, 10, 18, 0)
s = 115: (0, 21, 6, 24, 52, 33, 12, 24, 62, 16, 16, 0)
s = 116: (0, 26, 5, 29, 36, 27, 14, 18, 39, 17, 21, 0)
s = 117: (0, 13, 7, 12, 33, 18, 11, 18, 34, 15, 23, 0)
s = 118: (0, 19, 10, 12, 40, 32, 10, 14, 55, 9, 14, 0)
s = 119: (0, 13, 10, 19, 38, 34, 11, 23, 100, 10, 30, 0)
s = 120: (0, 12, 4, 24, 56, 25, 13, 14, 37, 12, 29, 0)
s = 121: (0, 17, 10, 22, 33, 20, 10, 19, 34, 14, 16, 0)
s = 122: (0, 24, 10, 17, 23, 25, 10, 15, 56, 15, 15, 0)
s = 123: (0, 11, 7, 20, 30, 21, 10, 23, 70, 16, 14, 0)
s = 124: (0, 19, 12, 24, 29, 18, 8, 13, 71, 12, 15, 0)
s = 125: (0, 11, 7, 14, 33, 33, 21, 16, 56, 14, 12, 0)
s = 126: (0, 14, 9, 22, 42, 25, 15, 21, 55, 8, 27, 0)
s = 127: (0, 21, 8, 22, 51, 23, 16, 19, 52, 10, 28, 0)
s = 128: (0, 13, 9, 19, 29, 31, 19, 14, 42, 18, 20, 0)
s = 129: (0, 18, 9, 15, 29, 29, 14, 19, 29, 8, 20, 0)
s = 130: (0, 21, 9, 26, 29, 34, 9, 22, 40, 11, 22, 0)
s = 131: (0, 13, 5, 21, 29, 26, 8, 22, 75, 11, 19, 0)
s = 132: (0, 16, 8, 16, 36, 29, 10, 14, 31, 19, 16, 0)
s = 133: (0, 25, 9, 14, 24, 21, 15, 20, 81, 13, 18, 0)
s = 134: (0, 22, 8, 25, 39, 17, 15, 15, 30, 10, 17, 0)
s = 135: (0, 19, 9, 13, 34, 18, 14, 26, 70, 16, 22, 0)
s = 136: (0, 24, 8, 24, 34, 15, 16, 17, 59, 14, 29, 0)
s = 137: (0, 16, 11, 15, 21, 22, 10, 24, 31, 14, 29, 0)
s = 138: (0, 28, 10, 27, 44, 28, 17, 23, 39, 12, 19, 0)
s = 139: (0, 19, 10, 18, 19, 23, 9, 16, 50, 19, 29, 0)
s = 140: (0, 11, 7, 22, 34, 15, 11, 15, 53, 12, 22, 0)
s = 141: (0, 18, 12, 30, 27, 28, 8, 20, 54, 11, 11, 0)
s = 142: (0, 13, 8, 19, 53, 20, 9, 20, 52, 10, 12, 0)
s = 143: (0, 17, 8, 23, 25, 20, 10, 19, 81, 10, 21, 0)
s = 144: (0, 16, 6, 15, 38, 26, 13, 19, 71, 13, 15, 0)
s = 145: (0, 14, 5, 15, 28, 35, 16, 13, 46, 11, 18, 0)
s = 146: (0, 24, 7, 37, 22, 19, 16, 18, 50, 15, 25, 0)
s = 147: (0, 23, 9, 20, 33, 31, 12, 19, 48, 11, 20, 0)
s = 148: (0, 14, 9, 11, 37, 18, 20, 15, 53, 13, 26, 0)
s = 149: (0, 14, 8, 13, 37, 24, 13, 15, 82, 7, 21, 0)
s = 150: (0, 20, 6, 13, 37, 23, 16, 21, 34, 15, 19, 0)
s = 151: (0, 16, 8, 34, 33, 40, 10, 27, 44, 11, 19, 0)
s = 152: (0, 19, 8, 19, 47, 35, 15, 28, 36, 9, 16, 0)
s = 153: (0, 15, 6, 17, 58, 17, 15, 18, 45, 9, 24, 0)
s = 154: (0, 13, 9, 22, 44, 33, 8, 31, 57, 13, 31, 0)
s = 155: (0, 12, 11, 13, 27, 24, 13, 26, 67, 12, 17, 0)
s = 156: (0, 19, 6, 24, 32, 17, 23, 28, 41, 9, 27, 0)
s = 157: (0, 15, 5, 18, 45, 29, 9, 20, 66, 11, 16, 0)
s = 158: (0, 17, 6, 28, 36, 28, 16, 22, 49, 15, 15, 0)
s = 159: (0, 19, 11, 19, 25, 19, 11, 28, 35, 14, 17, 0)
s = 160: (0, 24, 10, 20, 48, 26, 15, 41, 71, 11, 16, 0)
s = 161: (0, 18, 5, 16, 21, 31, 17, 31, 61, 7, 13, 0)
s = 162: (0, 14, 9, 25, 24, 19, 12, 32, 29, 8, 14, 0)
s = 163: (0, 25, 11, 14, 30, 23, 9, 21, 56, 11, 21, 0)
s = 164: (0, 19, 12, 17, 57, 31, 11, 22, 38, 8, 23, 0)
s = 165: (0, 14, 6, 21, 37, 27, 13, 26, 51, 14, 21, 0)
s = 166: (0, 16, 6, 26, 30, 22, 12, 34, 49, 12, 25, 0)
s = 167: (0, 14, 6, 24, 46, 29, 12, 36, 70, 8, 23, 0)
s = 168: (0, 25, 6, 15, 47, 15, 8, 32, 50, 14, 14, 0)
s = 169: (0, 22, 6, 33, 65, 24, 9, 24, 38, 9, 17, 0)
s = 170: (0, 13, 6, 19, 35, 37, 18, 15, 33, 8, 13, 0)
s = 171: (0, 18, 9, 23, 25, 26, 14, 13, 33, 13, 17, 0)
s = 172: (0, 22, 7, 16, 63, 29, 13, 29, 66, 14, 13, 0)
s = 173: (0, 12, 10, 28, 37, 27, 17, 20, 37, 13, 24, 0)
s = 174: (0, 16, 8, 37, 29, 29, 13, 26, 53, 11, 35, 0)
s = 175: (0, 19, 7, 23, 34, 18, 11, 16, 44, 8, 20, 0)
s = 176: (0, 17, 11, 12, 51, 32, 8, 11, 56, 16, 21, 0)
s = 177: (0, 20, 5, 32, 34, 25, 12, 17, 66, 9, 17, 0)
s = 178: (0, 20, 9, 30, 46, 25, 10, 21, 31, 15, 24, 0)
s = 179: (0, 21, 6, 26, 48, 16, 16, 31, 47, 11, 20, 0)
s = 180: (0, 12, 11, 18, 46, 28, 9, 13, 69, 17, 20, 0)
s = 181: (0, 16, 6, 25, 33, 31, 12, 11, 69, 11, 27, 0)
s = 182: (0, 22, 7, 16, 65, 33, 14, 39, 50, 20, 25, 0)
s = 183: (0, 20, 8, 24, 34, 17, 9, 26, 59, 12, 31, 0)
s = 184: (0, 17, 9, 12, 38, 26, 9, 26, 53, 14, 28, 0)
s = 185: (0, 19, 10, 19, 45, 26, 17, 15, 42, 11, 26, 0)
s = 186: (0, 31, 9, 21, 31, 25, 15, 20, 96, 10, 24, 0)
s = 187: (0, 11, 6, 35, 51, 21, 10, 22, 36, 13, 16, 0)
s = 188: (0, 16, 7, 28, 21, 20, 11, 27, 57, 14, 22, 0)
s = 189: (0, 11, 10, 11, 37, 21, 10, 16, 39, 19, 34, 0)
s = 190: (0, 14, 10, 16, 25, 16, 13, 16, 54, 13, 17, 0)
s = 191: (0, 23, 9, 18, 39, 32, 17, 14, 33, 10, 19, 0)
s = 192: (0, 17, 6, 22, 38, 23, 10, 20, 52, 7, 17, 0)
s = 193: (0, 21, 6, 19, 31, 27, 12, 14, 62, 11, 26, 0)
s = 194: (0, 17, 6, 15, 36, 17, 17, 15, 49, 9, 20, 0)
s = 195: (0, 12, 12, 16, 46, 16, 13, 15, 54, 12, 11, 0)
s = 196: (0, 16, 5, 17, 56, 37, 13, 23, 61, 21, 13, 0)
s = 197: (0, 26, 5, 20, 31, 18, 11, 21, 64, 17, 15, 0)
s = 198: (0, 14, 7, 30, 28, 25, 12, 20, 37, 10, 25, 0)
s = 199: (0, 19, 10, 17, 31, 23, 11, 13, 29, 16, 32, 0)
s = 200: (0, 12, 7, 14, 43, 21, 13, 18, 46, 16, 18, 0)
------------------------------------------------------------------------
RESOURCE k = 3
s = 1: (0, 33, 5, 11, 58, 29, 12, 18, 17, 14, 29, 0)
s = 2: (0, 57, 5, 9, 82, 19, 16, 26, 21, 11, 21, 0)
s = 3: (0, 28, 6, 9, 82, 10, 10, 19, 22, 13, 21, 0)
s = 4: (0, 42, 5, 14, 102, 18, 13, 27, 20, 10, 20, 0)
s = 5: (0, 40, 4, 8, 51, 13, 6, 23, 16, 17, 17, 0)
s = 6: (0, 56, 5, 11, 47, 11, 8, 24, 25, 20, 17, 0)
s = 7: (0, 35, 3, 16, 49, 12, 14, 27, 20, 12, 13, 0)
s = 8: (0, 44, 6, 8, 61, 12, 7, 24, 16, 22, 21, 0)
s = 9: (0, 33, 7, 9, 62, 25, 14, 16, 12, 16, 20, 0)
s = 10: (0, 27, 5, 8, 47, 21, 12, 36, 22, 16, 17, 0)
s = 11: (0, 55, 6, 16, 39, 18, 9, 13, 15, 15, 13, 0)
s = 12: (0, 63, 7, 15, 54, 16, 9, 16, 18, 10, 11, 0)
s = 13: (0, 25, 6, 19, 67, 11, 11, 14, 17, 14, 13, 0)
s = 14: (0, 42, 4, 11, 79, 13, 16, 16, 11, 13, 21, 0)
s = 15: (0, 34, 6, 15, 55, 24, 6, 30, 22, 14, 18, 0)
s = 16: (0, 59, 5, 8, 63, 10, 11, 15, 16, 15, 14, 0)
s = 17: (0, 81, 4, 17, 96, 13, 17, 32, 20, 16, 20, 0)
s = 18: (0, 52, 6, 12, 47, 9, 11, 19, 18, 15, 15, 0)
s = 19: (0, 48, 5, 11, 81, 10, 15, 14, 13, 9, 12, 0)
s = 20: (0, 25, 5, 16, 65, 13, 12, 16, 14, 19, 18, 0)
s = 21: (0, 49, 7, 15, 69, 16, 14, 29, 14, 10, 20, 0)
s = 22: (0, 49, 8, 13, 55, 18, 13, 20, 23, 22, 29, 0)
s = 23: (0, 49, 4, 8, 48, 11, 6, 26, 12, 8, 26, 0)
s = 24: (0, 22, 5, 9, 41, 22, 7, 14, 12, 8, 21, 0)
s = 25: (0, 47, 4, 22, 59, 17, 11, 24, 18, 12, 30, 0)
s = 26: (0, 39, 7, 19, 77, 13, 8, 19, 25, 7, 20, 0)
s = 27: (0, 41, 7, 15, 42, 15, 13, 16, 10, 16, 15, 0)
s = 28: (0, 39, 7, 9, 48, 23, 9, 19, 14, 10, 14, 0)
s = 29: (0, 47, 5, 12, 64, 17, 9, 14, 20, 12, 11, 0)
s = 30: (0, 59, 7, 17, 65, 23, 11, 16, 16, 15, 27, 0)
s = 31: (0, 36, 5, 15, 35, 13, 17, 20, 19, 9, 13, 0)
s = 32: (0, 46, 5, 9, 32, 10, 11, 23, 20, 18, 17, 0)
s = 33: (0, 46, 5, 8, 59, 13, 7, 15, 16, 15, 11, 0)
s = 34: (0, 25, 4, 17, 39, 16, 10, 30, 20, 14, 25, 0)
s = 35: (0, 43, 5, 16, 41, 20, 8, 19, 18, 9, 20, 0)
s = 36: (0, 53, 4, 10, 68, 15, 9, 15, 18, 11, 17, 0)
s = 37: (0, 51, 6, 14, 79, 12, 9, 24, 10, 9, 11, 0)
s = 38: (0, 54, 7, 10, 31, 22, 6, 18, 18, 15, 21, 0)
s = 39: (0, 31, 6, 10, 43, 11, 11, 26, 11, 16, 22, 0)
s = 40: (0, 31, 4, 18, 38, 12, 11, 20, 14, 14, 15, 0)
s = 41: (0, 61, 5, 16, 34, 16, 17, 35, 13, 18, 14, 0)
s = 42: (0, 39, 9, 11, 47, 13, 13, 17, 12, 8, 16, 0)
s = 43: (0, 50, 6, 13, 47, 23, 9, 11, 15, 15, 29, 0)
s = 44: (0, 50, 5, 17, 57, 14, 9, 13, 24, 9, 16, 0)
s = 45: (0, 51, 4, 11, 88, 14, 7, 33, 10, 12, 19, 0)
s = 46: (0, 52, 4, 11, 40, 25, 7, 12, 14, 11, 25, 0)
s = 47: (0, 40, 6, 7, 95, 19, 11, 21, 18, 20, 21, 0)
s = 48: (0, 25, 6, 11, 46, 11, 15, 18, 16, 10, 18, 0)
s = 49: (0, 37, 7, 8, 47, 19, 9, 18, 10, 17, 24, 0)
s = 50: (0, 24, 5, 14, 33, 13, 12, 22, 23, 14, 16, 0)
s = 51: (0, 40, 3, 13, 49, 12, 8, 18, 22, 15, 13, 0)
s = 52: (0, 27, 6, 11, 59, 15, 10, 12, 14, 10, 21, 0)
s = 53: (0, 32, 6, 17, 60, 15, 12, 21, 20, 16, 21, 0)
s = 54: (0, 48, 5, 11, 58, 20, 13, 19, 16, 12, 15, 0)
s = 55: (0, 45, 5, 10, 81, 15, 16, 21, 11, 14, 17, 0)
s = 56: (0, 29, 5, 11, 41, 16, 17, 19, 10, 17, 14, 0)
s = 57: (0, 43, 5, 17, 63, 12, 9, 16, 17, 10, 24, 0)
s = 58: (0, 63, 6, 8, 55, 19, 15, 14, 11, 13, 13, 0)
s = 59: (0, 55, 4, 17, 81, 13, 14, 24, 13, 8, 17, 0)
s = 60: (0, 47, 5, 17, 40, 12, 10, 27, 13, 9, 23, 0)
s = 61: (0, 54, 5, 14, 48, 13, 8, 26, 10, 9, 20, 0)
s = 62: (0, 31, 4, 13, 34, 12, 9, 26, 14, 8, 18, 0)
s = 63: (0, 38, 7, 17, 87, 12, 17, 17, 17, 8, 21, 0)
s = 64: (0, 46, 7, 13, 43, 20, 8, 19, 17, 12, 29, 0)
s = 65: (0, 40, 5, 10, 77, 10, 14, 16, 21, 13, 14, 0)
s = 66: (0, 49, 6, 7, 32, 24, 16, 18, 20, 14, 15, 0)
s = 67: (0, 51, 3, 11, 36, 17, 9, 20, 18, 12, 21, 0)
s = 68: (0, 30, 6, 9, 45, 14, 9, 28, 12, 14, 17, 0)
s = 69: (0, 32, 5, 9, 48, 15, 8, 24, 20, 14, 13, 0)
s = 70: (0, 46, 5, 18, 61, 16, 12, 21, 16, 12, 17, 0)
s = 71: (0, 28, 3, 14, 57, 12, 17, 17, 13, 14, 15, 0)
s = 72: (0, 40, 5, 11, 50, 20, 9, 23, 26, 11, 12, 0)
s = 73: (0, 52, 7, 12, 40, 17, 11, 14, 19, 10, 15, 0)
s = 74: (0, 38, 4, 15, 57, 23, 16, 14, 16, 14, 25, 0)
s = 75: (0, 49, 5, 13, 52, 16, 8, 26, 17, 13, 15, 0)
s = 76: (0, 66, 5, 13, 37, 19, 8, 13, 13, 10, 11, 0)
s = 77: (0, 46, 3, 12, 51, 14, 10, 14, 17, 11, 23, 0)
s = 78: (0, 58, 8, 10, 59, 20, 8, 17, 19, 9, 27, 0)
s = 79: (0, 41, 5, 14, 61, 11, 9, 24, 9, 9, 18, 0)
s = 80: (0, 32, 5, 10, 94, 19, 9, 20, 18, 9, 20, 0)
s = 81: (0, 40, 5, 20, 48, 18, 7, 16, 18, 10, 21, 0)
s = 82: (0, 44, 5, 13, 50, 19, 8, 21, 17, 10, 11, 0)
s = 83: (0, 58, 6, 19, 55, 9, 7, 29, 12, 13, 11, 0)
s = 84: (0, 39, 5, 9, 39, 13, 13, 24, 13, 12, 11, 0)
s = 85: (0, 53, 4, 11, 82, 14, 9, 20, 10, 17, 13, 0)
s = 86: (0, 36, 5, 16, 37, 17, 12, 13, 16, 13, 17, 0)
s = 87: (0, 37, 4, 10, 51, 15, 8, 31, 15, 9, 15, 0)
s = 88: (0, 45, 5, 11, 46, 15, 11, 24, 9, 12, 14, 0)
s = 89: (0, 62, 4, 10, 32, 23, 12, 31, 22, 16, 18, 0)
s = 90: (0, 45, 3, 9, 39, 16, 9, 28, 12, 10, 15, 0)
s = 91: (0, 47, 4, 14, 60, 15, 7, 25, 17, 8, 22, 0)
s = 92: (0, 40, 7, 11, 36, 25, 11, 24, 29, 12, 15, 0)
s = 93: (0, 41, 5, 15, 43, 17, 8, 19, 15, 15, 11, 0)
s = 94: (0, 33, 6, 18, 46, 16, 11, 24, 17, 9, 19, 0)
s = 95: (0, 54, 6, 13, 75, 15, 7, 23, 17, 13, 11, 0)
s = 96: (0, 45, 4, 11, 83, 10, 13, 18, 10, 12, 12, 0)
s = 97: (0, 44, 6, 10, 36, 19, 16, 31, 17, 13, 15, 0)
s = 98: (0, 29, 5, 9, 63, 15, 11, 12, 13, 11, 13, 0)
s = 99: (0, 25, 5, 11, 81, 18, 9, 23, 11, 15, 21, 0)
s = 100: (0, 71, 7, 16, 33, 10, 12, 32, 12, 19, 27, 0)
s = 101: (0, 29, 5, 14, 37, 15, 11, 15, 11, 16, 10, 0)
s = 102: (0, 54, 7, 11, 54, 13, 11, 25, 16, 13, 11, 0)
s = 103: (0, 44, 6, 17, 46, 15, 8, 15, 18, 13, 16, 0)
s = 104: (0, 53, 5, 15, 86, 16, 7, 13, 20, 8, 21, 0)
s = 105: (0, 31, 7, 10, 64, 16, 7, 28, 12, 9, 14, 0)
s = 106: (0, 55, 5, 9, 34, 19, 14, 24, 17, 16, 22, 0)
s = 107: (0, 66, 8, 12, 32, 16, 11, 12, 13, 15, 21, 0)
s = 108: (0, 60, 7, 11, 55, 14, 14, 20, 12, 9, 15, 0)
s = 109: (0, 32, 6, 16, 44, 10, 10, 13, 15, 13, 12, 0)
s = 110: (0, 56, 6, 17, 86, 16, 17, 18, 13, 12, 21, 0)
s = 111: (0, 47, 6, 14, 59, 11, 12, 30, 16, 14, 14, 0)
s = 112: (0, 48, 5, 11, 30, 11, 9, 18, 17, 13, 22, 0)
s = 113: (0, 43, 5, 9, 52, 13, 13, 23, 16, 12, 17, 0)
s = 114: (0, 25, 4, 20, 51, 20, 10, 15, 21, 10, 16, 0)
s = 115: (0, 48, 5, 14, 78, 21, 8, 24, 19, 16, 15, 0)
s = 116: (0, 59, 4, 18, 54, 17, 10, 18, 12, 17, 19, 0)
s = 117: (0, 30, 5, 7, 49, 11, 8, 18, 11, 15, 20, 0)
s = 118: (0, 45, 7, 7, 60, 20, 8, 14, 17, 9, 13, 0)
s = 119: (0, 29, 7, 12, 56, 22, 8, 23, 30, 10, 27, 0)
s = 120: (0, 28, 3, 15, 83, 16, 9, 14, 11, 12, 27, 0)
s = 121: (0, 39, 7, 13, 49, 13, 7, 19, 11, 14, 14, 0)
s = 122: (0, 54, 7, 10, 35, 16, 7, 15, 17, 15, 13, 0)
s = 123: (0, 26, 5, 12, 45, 14, 8, 23, 21, 16, 13, 0)
s = 124: (0, 43, 9, 14, 43, 12, 6, 13, 22, 12, 14, 0)
s = 125: (0, 26, 5, 9, 50, 21, 15, 16, 17, 14, 11, 0)
s = 126: (0, 31, 7, 14, 63, 16, 11, 21, 17, 8, 25, 0)
s = 127: (0, 48, 6, 13, 76, 14, 12, 19, 16, 10, 25, 0)
s = 128: (0, 31, 7, 11, 43, 20, 14, 14, 13, 18, 18, 0)
s = 129: (0, 42, 6, 9, 43, 19, 10, 19, 9, 8, 18, 0)
s = 130: (0, 48, 6, 16, 43, 21, 6, 22, 12, 11, 20, 0)
s = 131: (0, 30, 4, 13, 43, 17, 6, 22, 23, 11, 17, 0)
s = 132: (0, 37, 6, 10, 54, 18, 8, 14, 10, 19, 14, 0)
s = 133: (0, 57, 6, 9, 35, 13, 11, 20, 25, 13, 16, 0)
s = 134: (0, 50, 6, 15, 59, 11, 11, 15, 9, 10, 16, 0)
s = 135: (0, 43, 7, 8, 51, 12, 10, 26, 21, 16, 20, 0)
s = 136: (0, 55, 6, 15, 50, 9, 12, 17, 18, 14, 26, 0)
s = 137: (0, 37, 8, 9, 31, 14, 8, 24, 10, 14, 26, 0)
s = 138: (0, 64, 7, 16, 65, 18, 12, 23, 12, 12, 17, 0)
s = 139: (0, 45, 7, 11, 28, 14, 7, 16, 15, 19, 26, 0)
s = 140: (0, 25, 5, 13, 51, 10, 8, 15, 16, 12, 20, 0)
s = 141: (0, 41, 9, 18, 40, 17, 6, 20, 16, 11, 10, 0)
s = 142: (0, 30, 6, 11, 79, 13, 7, 20, 16, 10, 11, 0)
s = 143: (0, 39, 6, 14, 37, 13, 7, 19, 25, 10, 19, 0)
s = 144: (0, 36, 4, 9, 57, 16, 9, 19, 22, 13, 13, 0)
s = 145: (0, 32, 4, 9, 42, 22, 12, 13, 14, 11, 17, 0)
s = 146: (0, 56, 5, 22, 32, 12, 12, 18, 15, 15, 22, 0)
s = 147: (0, 53, 6, 12, 50, 19, 9, 19, 15, 11, 18, 0)
s = 148: (0, 31, 7, 7, 55, 12, 14, 15, 16, 13, 23, 0)
s = 149: (0, 32, 6, 8, 56, 15, 9, 15, 25, 7, 19, 0)
s = 150: (0, 47, 4, 8, 55, 15, 12, 21, 10, 15, 17, 0)
s = 151: (0, 36, 6, 21, 49, 25, 7, 27, 14, 11, 17, 0)
s = 152: (0, 43, 6, 12, 71, 22, 11, 28, 11, 9, 14, 0)
s = 153: (0, 34, 4, 10, 86, 11, 11, 18, 14, 9, 22, 0)
s = 154: (0, 29, 7, 13, 66, 21, 6, 31, 17, 13, 28, 0)
s = 155: (0, 27, 8, 8, 40, 15, 9, 26, 20, 12, 16, 0)
s = 156: (0, 43, 4, 14, 48, 11, 16, 28, 13, 9, 25, 0)
s = 157: (0, 33, 4, 11, 67, 18, 7, 20, 20, 11, 14, 0)
s = 158: (0, 40, 4, 17, 53, 18, 12, 22, 15, 15, 14, 0)
s = 159: (0, 44, 8, 12, 38, 12, 8, 28, 11, 14, 16, 0)
s = 160: (0, 55, 7, 12, 72, 16, 11, 41, 22, 11, 15, 0)
s = 161: (0, 42, 4, 10, 31, 19, 12, 31, 19, 7, 12, 0)
s = 162: (0, 33, 6, 15, 36, 12, 8, 32, 9, 8, 13, 0)
s = 163: (0, 59, 8, 9, 44, 15, 7, 21, 17, 11, 19, 0)
s = 164: (0, 45, 8, 11, 85, 19, 8, 22, 12, 8, 21, 0)
s = 165: (0, 32, 4, 13, 55, 17, 9, 26, 16, 14, 19, 0)
s = 166: (0, 38, 5, 16, 45, 14, 9, 34, 15, 12, 22, 0)
s = 167: (0, 32, 4, 14, 69, 18, 9, 36, 21, 8, 21, 0)
s = 168: (0, 57, 4, 9, 70, 10, 6, 32, 15, 14, 13, 0)
s = 169: (0, 50, 5, 20, 97, 15, 7, 24, 12, 9, 16, 0)
s = 170: (0, 29, 4, 12, 53, 23, 13, 15, 10, 8, 12, 0)
s = 171: (0, 42, 7, 14, 38, 17, 10, 13, 10, 13, 15, 0)
s = 172: (0, 50, 5, 10, 95, 19, 9, 29, 20, 14, 12, 0)
s = 173: (0, 28, 7, 17, 55, 17, 13, 20, 12, 13, 22, 0)
s = 174: (0, 37, 6, 22, 43, 18, 10, 26, 16, 11, 32, 0)
s = 175: (0, 44, 5, 14, 51, 12, 8, 16, 14, 8, 18, 0)
s = 176: (0, 39, 8, 7, 76, 20, 6, 11, 17, 16, 19, 0)
s = 177: (0, 45, 4, 19, 51, 16, 9, 17, 20, 9, 16, 0)
s = 178: (0, 46, 7, 18, 68, 16, 8, 21, 10, 15, 21, 0)
s = 179: (0, 49, 4, 16, 71, 10, 11, 31, 15, 11, 18, 0)
s = 180: (0, 28, 8, 11, 69, 18, 7, 13, 21, 17, 18, 0)
s = 181: (0, 37, 4, 15, 50, 20, 9, 11, 21, 11, 24, 0)
s = 182: (0, 50, 5, 10, 98, 21, 10, 39, 15, 20, 23, 0)
s = 183: (0, 46, 6, 15, 51, 11, 7, 26, 18, 12, 28, 0)
s = 184: (0, 39, 6, 7, 56, 17, 6, 26, 16, 14, 26, 0)
s = 185: (0, 43, 7, 12, 67, 17, 12, 15, 13, 11, 23, 0)
s = 186: (0, 72, 7, 13, 47, 16, 11, 20, 29, 10, 21, 0)
s = 187: (0, 24, 4, 21, 76, 13, 7, 22, 11, 13, 15, 0)
s = 188: (0, 37, 5, 17, 32, 13, 8, 27, 18, 14, 20, 0)
s = 189: (0, 26, 7, 7, 55, 14, 7, 16, 12, 19, 31, 0)
s = 190: (0, 32, 8, 10, 37, 10, 9, 16, 16, 13, 15, 0)
s = 191: (0, 53, 7, 11, 58, 20, 12, 14, 10, 10, 17, 0)
s = 192: (0, 39, 5, 13, 56, 15, 7, 20, 16, 7, 16, 0)
s = 193: (0, 48, 5, 12, 46, 17, 9, 14, 19, 11, 23, 0)
s = 194: (0, 38, 4, 9, 53, 11, 12, 15, 15, 9, 18, 0)
s = 195: (0, 26, 9, 10, 69, 10, 9, 15, 16, 12, 10, 0)
s = 196: (0, 37, 4, 11, 84, 24, 10, 23, 19, 21, 12, 0)
s = 197: (0, 61, 4, 12, 47, 12, 8, 21, 20, 17, 13, 0)
s = 198: (0, 32, 5, 18, 41, 16, 8, 20, 11, 10, 23, 0)
s = 199: (0, 43, 8, 10, 46, 14, 8, 13, 9, 16, 29, 0)
s = 200: (0, 27, 5, 9, 65, 13, 10, 18, 14, 16, 16, 0)
************************************************************************
ES/LS-VALUES:
jobnr.   ES(i)    LS(i)
------------------------------------------------------------------------
  0        0        0
  1        0       48
  2        0       64
  3        0       50
  4        3       54
  5       11       60
  6       16       68
  7       16       67
  8       16       66
  9       20       72
 10       20       72
 11       26       76
************************************************************************
BIG-M-VALUES:
M1 = 67, M2 = 351
************************************************************************
